\ENCODING=ISO-8859-1
\Problem name: ilog.cplex

Minimize
 obj: - 3 x + 2.79396772449696e-9 x.prod(0,0) + 5.58793544899391e-9 x.prod(0,1)
      + 1.11758708979878e-8 x.prod(0,2) + 2.23517417959757e-8 x.prod(0,3)
      + 4.47034835919513e-8 x.prod(0,4) + 8.94069671839026e-8 x.prod(0,5)
      + 1.78813934367805e-7 x.prod(0,6) + 3.5762786873561e-7 x.prod(0,7)
      + 7.15255737471221e-7 x.prod(0,8) + 0.00000143051147494244 x.prod(0,9)
      + 0.00000286102294988488 x.prod(0,10)
      + 0.00000572204589976977 x.prod(0,11)
      + 0.0000114440917995395 x.prod(0,12) + 0.0000228881835990791 x.prod(0,13)
      + 0.0000457763671981581 x.prod(0,14) + 0.0000915527343963163 x.prod(0,15)
      + 0.000183105468792633 x.prod(0,16) + 0.000366210937585265 x.prod(0,17)
      + 0.00073242187517053 x.prod(0,18) + 0.00146484375034106 x.prod(0,19)
      + 0.00292968750068212 x.prod(0,20) + 0.00585937500136424 x.prod(0,21)
      + 0.0117187500027285 x.prod(0,22) + 0.023437500005457 x.prod(0,23)
      + 0.0468750000109139 x.prod(0,24) + 0.0937500000218279 x.prod(0,25)
      + 0.187500000043656 x.prod(0,26) + 0.375000000087311 x.prod(0,27)
      + 0.750000000174623 x.prod(0,28) + 1.50000000034925 x.prod(0,29)
      + 3.00000000069849 x.prod(0,30) + 6.00000000139698 x.prod(0,31)
Subject To
 r1: x - 6.00000000139698 x.bits(31) - 3.00000000069849 x.bits(30)
     - 1.50000000034925 x.bits(29) - 0.750000000174623 x.bits(28)
     - 0.375000000087311 x.bits(27) - 0.187500000043656 x.bits(26)
     - 0.0937500000218279 x.bits(25) - 0.0468750000109139 x.bits(24)
     - 0.023437500005457 x.bits(23) - 0.0117187500027285 x.bits(22)
     - 0.00585937500136424 x.bits(21) - 0.00292968750068212 x.bits(20)
     - 0.00146484375034106 x.bits(19) - 0.00073242187517053 x.bits(18)
     - 0.000366210937585265 x.bits(17) - 0.000183105468792633 x.bits(16)
     - 0.0000915527343963163 x.bits(15) - 0.0000457763671981581 x.bits(14)
     - 0.0000228881835990791 x.bits(13) - 0.0000114440917995395 x.bits(12)
     - 0.00000572204589976977 x.bits(11) - 0.00000286102294988488 x.bits(10)
     - 0.00000143051147494244 x.bits(9) - 7.15255737471221e-7 x.bits(8)
     - 3.5762786873561e-7 x.bits(7) - 1.78813934367805e-7 x.bits(6)
     - 8.94069671839026e-8 x.bits(5) - 4.47034835919513e-8 x.bits(4)
     - 2.23517417959757e-8 x.bits(3) - 1.11758708979878e-8 x.bits(2)
     - 5.58793544899391e-9 x.bits(1) - 2.79396772449696e-9 x.bits(0)  = -3
 r1: x - 6.00000000139698 x.bits(31) - 3.00000000069849 x.bits(30)
     - 1.50000000034925 x.bits(29) - 0.750000000174623 x.bits(28)
     - 0.375000000087311 x.bits(27) - 0.187500000043656 x.bits(26)
     - 0.0937500000218279 x.bits(25) - 0.0468750000109139 x.bits(24)
     - 0.023437500005457 x.bits(23) - 0.0117187500027285 x.bits(22)
     - 0.00585937500136424 x.bits(21) - 0.00292968750068212 x.bits(20)
     - 0.00146484375034106 x.bits(19) - 0.00073242187517053 x.bits(18)
     - 0.000366210937585265 x.bits(17) - 0.000183105468792633 x.bits(16)
     - 0.0000915527343963163 x.bits(15) - 0.0000457763671981581 x.bits(14)
     - 0.0000228881835990791 x.bits(13) - 0.0000114440917995395 x.bits(12)
     - 0.00000572204589976977 x.bits(11) - 0.00000286102294988488 x.bits(10)
     - 0.00000143051147494244 x.bits(9) - 7.15255737471221e-7 x.bits(8)
     - 3.5762786873561e-7 x.bits(7) - 1.78813934367805e-7 x.bits(6)
     - 8.94069671839026e-8 x.bits(5) - 4.47034835919513e-8 x.bits(4)
     - 2.23517417959757e-8 x.bits(3) - 1.11758708979878e-8 x.bits(2)
     - 5.58793544899391e-9 x.bits(1) - 2.79396772449696e-9 x.bits(0)  = -4
 r1: 100000 x.bits(0) - x + x.prod(0,0) <= 100000
 r1: - 100000 x.bits(0) - x + x.prod(0,0) >= -100000
 r1: - 100000 x.bits(0) + x.prod(0,0) <= 0
 r1: 100000 x.bits(0) + x.prod(0,0) >= 0
 r1: 100000 x.bits(1) - x + x.prod(0,1) <= 100000
 r1: - 100000 x.bits(1) - x + x.prod(0,1) >= -100000
 r1: - 100000 x.bits(1) + x.prod(0,1) <= 0
 r1: 100000 x.bits(1) + x.prod(0,1) >= 0
 r1: 100000 x.bits(2) - x + x.prod(0,2) <= 100000
 r1: - 100000 x.bits(2) - x + x.prod(0,2) >= -100000
 r1: - 100000 x.bits(2) + x.prod(0,2) <= 0
 r1: 100000 x.bits(2) + x.prod(0,2) >= 0
 r1: 100000 x.bits(3) - x + x.prod(0,3) <= 100000
 r1: - 100000 x.bits(3) - x + x.prod(0,3) >= -100000
 r1: - 100000 x.bits(3) + x.prod(0,3) <= 0
 r1: 100000 x.bits(3) + x.prod(0,3) >= 0
 r1: 100000 x.bits(4) - x + x.prod(0,4) <= 100000
 r1: - 100000 x.bits(4) - x + x.prod(0,4) >= -100000
 r1: - 100000 x.bits(4) + x.prod(0,4) <= 0
 r1: 100000 x.bits(4) + x.prod(0,4) >= 0
 r1: 100000 x.bits(5) - x + x.prod(0,5) <= 100000
 r1: - 100000 x.bits(5) - x + x.prod(0,5) >= -100000
 r1: - 100000 x.bits(5) + x.prod(0,5) <= 0
 r1: 100000 x.bits(5) + x.prod(0,5) >= 0
 r1: 100000 x.bits(6) - x + x.prod(0,6) <= 100000
 r1: - 100000 x.bits(6) - x + x.prod(0,6) >= -100000
 r1: - 100000 x.bits(6) + x.prod(0,6) <= 0
 r1: 100000 x.bits(6) + x.prod(0,6) >= 0
 r1: 100000 x.bits(7) - x + x.prod(0,7) <= 100000
 r1: - 100000 x.bits(7) - x + x.prod(0,7) >= -100000
 r1: - 100000 x.bits(7) + x.prod(0,7) <= 0
 r1: 100000 x.bits(7) + x.prod(0,7) >= 0
 r1: 100000 x.bits(8) - x + x.prod(0,8) <= 100000
 r1: - 100000 x.bits(8) - x + x.prod(0,8) >= -100000
 r1: - 100000 x.bits(8) + x.prod(0,8) <= 0
 r1: 100000 x.bits(8) + x.prod(0,8) >= 0
 r1: 100000 x.bits(9) - x + x.prod(0,9) <= 100000
 r1: - 100000 x.bits(9) - x + x.prod(0,9) >= -100000
 r1: - 100000 x.bits(9) + x.prod(0,9) <= 0
 r1: 100000 x.bits(9) + x.prod(0,9) >= 0
 r1: 100000 x.bits(10) - x + x.prod(0,10) <= 100000
 r1: - 100000 x.bits(10) - x + x.prod(0,10) >= -100000
 r1: - 100000 x.bits(10) + x.prod(0,10) <= 0
 r1: 100000 x.bits(10) + x.prod(0,10) >= 0
 r1: 100000 x.bits(11) - x + x.prod(0,11) <= 100000
 r1: - 100000 x.bits(11) - x + x.prod(0,11) >= -100000
 r1: - 100000 x.bits(11) + x.prod(0,11) <= 0
 r1: 100000 x.bits(11) + x.prod(0,11) >= 0
 r1: 100000 x.bits(12) - x + x.prod(0,12) <= 100000
 r1: - 100000 x.bits(12) - x + x.prod(0,12) >= -100000
 r1: - 100000 x.bits(12) + x.prod(0,12) <= 0
 r1: 100000 x.bits(12) + x.prod(0,12) >= 0
 r1: 100000 x.bits(13) - x + x.prod(0,13) <= 100000
 r1: - 100000 x.bits(13) - x + x.prod(0,13) >= -100000
 r1: - 100000 x.bits(13) + x.prod(0,13) <= 0
 r1: 100000 x.bits(13) + x.prod(0,13) >= 0
 r1: 100000 x.bits(14) - x + x.prod(0,14) <= 100000
 r1: - 100000 x.bits(14) - x + x.prod(0,14) >= -100000
 r1: - 100000 x.bits(14) + x.prod(0,14) <= 0
 r1: 100000 x.bits(14) + x.prod(0,14) >= 0
 r1: 100000 x.bits(15) - x + x.prod(0,15) <= 100000
 r1: - 100000 x.bits(15) - x + x.prod(0,15) >= -100000
 r1: - 100000 x.bits(15) + x.prod(0,15) <= 0
 r1: 100000 x.bits(15) + x.prod(0,15) >= 0
 r1: 100000 x.bits(16) - x + x.prod(0,16) <= 100000
 r1: - 100000 x.bits(16) - x + x.prod(0,16) >= -100000
 r1: - 100000 x.bits(16) + x.prod(0,16) <= 0
 r1: 100000 x.bits(16) + x.prod(0,16) >= 0
 r1: 100000 x.bits(17) - x + x.prod(0,17) <= 100000
 r1: - 100000 x.bits(17) - x + x.prod(0,17) >= -100000
 r1: - 100000 x.bits(17) + x.prod(0,17) <= 0
 r1: 100000 x.bits(17) + x.prod(0,17) >= 0
 r1: 100000 x.bits(18) - x + x.prod(0,18) <= 100000
 r1: - 100000 x.bits(18) - x + x.prod(0,18) >= -100000
 r1: - 100000 x.bits(18) + x.prod(0,18) <= 0
 r1: 100000 x.bits(18) + x.prod(0,18) >= 0
 r1: 100000 x.bits(19) - x + x.prod(0,19) <= 100000
 r1: - 100000 x.bits(19) - x + x.prod(0,19) >= -100000
 r1: - 100000 x.bits(19) + x.prod(0,19) <= 0
 r1: 100000 x.bits(19) + x.prod(0,19) >= 0
 r1: 100000 x.bits(20) - x + x.prod(0,20) <= 100000
 r1: - 100000 x.bits(20) - x + x.prod(0,20) >= -100000
 r1: - 100000 x.bits(20) + x.prod(0,20) <= 0
 r1: 100000 x.bits(20) + x.prod(0,20) >= 0
 r1: 100000 x.bits(21) - x + x.prod(0,21) <= 100000
 r1: - 100000 x.bits(21) - x + x.prod(0,21) >= -100000
 r1: - 100000 x.bits(21) + x.prod(0,21) <= 0
 r1: 100000 x.bits(21) + x.prod(0,21) >= 0
 r1: 100000 x.bits(22) - x + x.prod(0,22) <= 100000
 r1: - 100000 x.bits(22) - x + x.prod(0,22) >= -100000
 r1: - 100000 x.bits(22) + x.prod(0,22) <= 0
 r1: 100000 x.bits(22) + x.prod(0,22) >= 0
 r1: 100000 x.bits(23) - x + x.prod(0,23) <= 100000
 r1: - 100000 x.bits(23) - x + x.prod(0,23) >= -100000
 r1: - 100000 x.bits(23) + x.prod(0,23) <= 0
 r1: 100000 x.bits(23) + x.prod(0,23) >= 0
 r1: 100000 x.bits(24) - x + x.prod(0,24) <= 100000
 r1: - 100000 x.bits(24) - x + x.prod(0,24) >= -100000
 r1: - 100000 x.bits(24) + x.prod(0,24) <= 0
 r1: 100000 x.bits(24) + x.prod(0,24) >= 0
 r1: 100000 x.bits(25) - x + x.prod(0,25) <= 100000
 r1: - 100000 x.bits(25) - x + x.prod(0,25) >= -100000
 r1: - 100000 x.bits(25) + x.prod(0,25) <= 0
 r1: 100000 x.bits(25) + x.prod(0,25) >= 0
 r1: 100000 x.bits(26) - x + x.prod(0,26) <= 100000
 r1: - 100000 x.bits(26) - x + x.prod(0,26) >= -100000
 r1: - 100000 x.bits(26) + x.prod(0,26) <= 0
 r1: 100000 x.bits(26) + x.prod(0,26) >= 0
 r1: 100000 x.bits(27) - x + x.prod(0,27) <= 100000
 r1: - 100000 x.bits(27) - x + x.prod(0,27) >= -100000
 r1: - 100000 x.bits(27) + x.prod(0,27) <= 0
 r1: 100000 x.bits(27) + x.prod(0,27) >= 0
 r1: 100000 x.bits(28) - x + x.prod(0,28) <= 100000
 r1: - 100000 x.bits(28) - x + x.prod(0,28) >= -100000
 r1: - 100000 x.bits(28) + x.prod(0,28) <= 0
 r1: 100000 x.bits(28) + x.prod(0,28) >= 0
 r1: 100000 x.bits(29) - x + x.prod(0,29) <= 100000
 r1: - 100000 x.bits(29) - x + x.prod(0,29) >= -100000
 r1: - 100000 x.bits(29) + x.prod(0,29) <= 0
 r1: 100000 x.bits(29) + x.prod(0,29) >= 0
 r1: 100000 x.bits(30) - x + x.prod(0,30) <= 100000
 r1: - 100000 x.bits(30) - x + x.prod(0,30) >= -100000
 r1: - 100000 x.bits(30) + x.prod(0,30) <= 0
 r1: 100000 x.bits(30) + x.prod(0,30) >= 0
 r1: 100000 x.bits(31) - x + x.prod(0,31) <= 100000
 r1: - 100000 x.bits(31) - x + x.prod(0,31) >= -100000
 r1: - 100000 x.bits(31) + x.prod(0,31) <= 0
 r1: 100000 x.bits(31) + x.prod(0,31) >= 0
Bounds
      x Free
 0 <= x.bits(31) <= 1
 0 <= x.bits(30) <= 1
 0 <= x.bits(29) <= 1
 0 <= x.bits(28) <= 1
 0 <= x.bits(27) <= 1
 0 <= x.bits(26) <= 1
 0 <= x.bits(25) <= 1
 0 <= x.bits(24) <= 1
 0 <= x.bits(23) <= 1
 0 <= x.bits(22) <= 1
 0 <= x.bits(21) <= 1
 0 <= x.bits(20) <= 1
 0 <= x.bits(19) <= 1
 0 <= x.bits(18) <= 1
 0 <= x.bits(17) <= 1
 0 <= x.bits(16) <= 1
 0 <= x.bits(15) <= 1
 0 <= x.bits(14) <= 1
 0 <= x.bits(13) <= 1
 0 <= x.bits(12) <= 1
 0 <= x.bits(11) <= 1
 0 <= x.bits(10) <= 1
 0 <= x.bits(9) <= 1
 0 <= x.bits(8) <= 1
 0 <= x.bits(7) <= 1
 0 <= x.bits(6) <= 1
 0 <= x.bits(5) <= 1
 0 <= x.bits(4) <= 1
 0 <= x.bits(3) <= 1
 0 <= x.bits(2) <= 1
 0 <= x.bits(1) <= 1
 0 <= x.bits(0) <= 1
      x Free
 0 <= x.bits(31) <= 1
 0 <= x.bits(30) <= 1
 0 <= x.bits(29) <= 1
 0 <= x.bits(28) <= 1
 0 <= x.bits(27) <= 1
 0 <= x.bits(26) <= 1
 0 <= x.bits(25) <= 1
 0 <= x.bits(24) <= 1
 0 <= x.bits(23) <= 1
 0 <= x.bits(22) <= 1
 0 <= x.bits(21) <= 1
 0 <= x.bits(20) <= 1
 0 <= x.bits(19) <= 1
 0 <= x.bits(18) <= 1
 0 <= x.bits(17) <= 1
 0 <= x.bits(16) <= 1
 0 <= x.bits(15) <= 1
 0 <= x.bits(14) <= 1
 0 <= x.bits(13) <= 1
 0 <= x.bits(12) <= 1
 0 <= x.bits(11) <= 1
 0 <= x.bits(10) <= 1
 0 <= x.bits(9) <= 1
 0 <= x.bits(8) <= 1
 0 <= x.bits(7) <= 1
 0 <= x.bits(6) <= 1
 0 <= x.bits(5) <= 1
 0 <= x.bits(4) <= 1
 0 <= x.bits(3) <= 1
 0 <= x.bits(2) <= 1
 0 <= x.bits(1) <= 1
 0 <= x.bits(0) <= 1
      x.prod(0,0) Free
      x.prod(0,1) Free
      x.prod(0,2) Free
      x.prod(0,3) Free
      x.prod(0,4) Free
      x.prod(0,5) Free
      x.prod(0,6) Free
      x.prod(0,7) Free
      x.prod(0,8) Free
      x.prod(0,9) Free
      x.prod(0,10) Free
      x.prod(0,11) Free
      x.prod(0,12) Free
      x.prod(0,13) Free
      x.prod(0,14) Free
      x.prod(0,15) Free
      x.prod(0,16) Free
      x.prod(0,17) Free
      x.prod(0,18) Free
      x.prod(0,19) Free
      x.prod(0,20) Free
      x.prod(0,21) Free
      x.prod(0,22) Free
      x.prod(0,23) Free
      x.prod(0,24) Free
      x.prod(0,25) Free
      x.prod(0,26) Free
      x.prod(0,27) Free
      x.prod(0,28) Free
      x.prod(0,29) Free
      x.prod(0,30) Free
      x.prod(0,31) Free
Binaries
 x.bits(31)  x.bits(30)  x.bits(29)  x.bits(28)  x.bits(27)  x.bits(26) 
 x.bits(25)  x.bits(24)  x.bits(23)  x.bits(22)  x.bits(21)  x.bits(20) 
 x.bits(19)  x.bits(18)  x.bits(17)  x.bits(16)  x.bits(15)  x.bits(14) 
 x.bits(13)  x.bits(12)  x.bits(11)  x.bits(10)  x.bits(9)  x.bits(8) 
 x.bits(7)  x.bits(6)  x.bits(5)  x.bits(4)  x.bits(3)  x.bits(2)  x.bits(1) 
 x.bits(0)  x.bits(31)  x.bits(30)  x.bits(29)  x.bits(28)  x.bits(27) 
 x.bits(26)  x.bits(25)  x.bits(24)  x.bits(23)  x.bits(22)  x.bits(21) 
 x.bits(20)  x.bits(19)  x.bits(18)  x.bits(17)  x.bits(16)  x.bits(15) 
 x.bits(14)  x.bits(13)  x.bits(12)  x.bits(11)  x.bits(10)  x.bits(9) 
 x.bits(8)  x.bits(7)  x.bits(6)  x.bits(5)  x.bits(4)  x.bits(3)  x.bits(2) 
 x.bits(1)  x.bits(0) 
End
